10
5
76040
0
0
39 40 38 43 45
1
0
56 51 55 52 53
2
0
63 63 69 65 67
3
0
62 58 62 63 64
4
0
60 62 65 60 63
5
0
39 40 38 40 40
6
0
66 67 70 65 65
7
0
42 42 43 45 43
8
0
79 78 74 72 74
9
0
47 49 45 48 46
